% Logging successfully configured
%%%mzn-stat: initTime=0.449717068
%%%mzn-stat: objective=839
%%%mzn-stat: nodes=501
%%%mzn-stat: restarts=0
%%%mzn-stat: peakDepth=129
%%%mzn-stat: solveTime=0.02252454
%%%mzn-stat: variables=298
%%%mzn-stat: propagators=386
%%%mzn-stat: failures=372
%%%mzn-stat: propagations=36595
%%%mzn-stat: nogoods=372
%%%mzn-stat: numAtomicConstraintsPropagated=0
%%%mzn-stat: circuitNumber191PropagationsThatFoundConflict=1
%%%mzn-stat: circuitNumber191TotalFixedEdgesAtConflict=17
%%%mzn-stat: circuitNumber191NumberOfConflicts=1
%%%mzn-stat: circuitNumber191PropagationsThatPruned=126
%%%mzn-stat: circuitNumber191PropagationsTotal=389
%%%mzn-stat: AverageConflictSize=3.5833333333333335
%%%mzn-stat: NumUnitNogoodsLearned=0
%%%mzn-stat: AverageLearnedNogoodLength=13.706989247311828
%%%mzn-stat: AverageBacktrackAmount=0
%%%mzn-stat: AverageLbd=7.244623655913978
%%%mzn-stat: 2AutonomousSearchNumBackupCalled=117
%%%mzn-stat: 2AutonomousSearchNumPredicatesRemoved=0
%%%mzn-stat: 2AutonomousSearchNumCalls=118
%%%mzn-stat: 2AutonomousSearchNumPredicatesAdded=416
%%%mzn-stat: 2AutonomousSearchAverageSizeOfHeap=3.5254237288135593
%%%mzn-stat: 2AutonomousSearchNumAssignedPredicatesEncountered=416
%%%mzn-stat-end
maxleg = 839;
succ = array1d(1..20,[2, 5, 1, 9, 4, 7, 14, 3, 6, 13, 15, 10, 19, 12, 16, 17, 18, 8, 20, 11]);
% time elapsed: 10.79 s
----------
%%%mzn-stat: initTime=0.449717068
%%%mzn-stat: objective=659
%%%mzn-stat: nodes=643
%%%mzn-stat: restarts=0
%%%mzn-stat: peakDepth=135
%%%mzn-stat: solveTime=0.024014644
%%%mzn-stat: variables=298
%%%mzn-stat: propagators=386
%%%mzn-stat: failures=376
%%%mzn-stat: propagations=37951
%%%mzn-stat: nogoods=376
%%%mzn-stat: numAtomicConstraintsPropagated=0
%%%mzn-stat: circuitNumber191PropagationsThatFoundConflict=3
%%%mzn-stat: circuitNumber191TotalFixedEdgesAtConflict=45
%%%mzn-stat: circuitNumber191NumberOfConflicts=3
%%%mzn-stat: circuitNumber191PropagationsThatPruned=128
%%%mzn-stat: circuitNumber191PropagationsTotal=413
%%%mzn-stat: AverageConflictSize=3.5930851063829787
%%%mzn-stat: NumUnitNogoodsLearned=0
%%%mzn-stat: AverageLearnedNogoodLength=13.65691489361702
%%%mzn-stat: AverageBacktrackAmount=0
%%%mzn-stat: AverageLbd=7.24468085106383
%%%mzn-stat: 2AutonomousSearchNumBackupCalled=237
%%%mzn-stat: 2AutonomousSearchNumPredicatesRemoved=0
%%%mzn-stat: 2AutonomousSearchNumCalls=239
%%%mzn-stat: 2AutonomousSearchNumPredicatesAdded=597
%%%mzn-stat: 2AutonomousSearchAverageSizeOfHeap=3.577405857740586
%%%mzn-stat: 2AutonomousSearchNumAssignedPredicatesEncountered=855
%%%mzn-stat-end
maxleg = 659;
succ = array1d(1..20,[2, 5, 1, 10, 4, 7, 9, 3, 18, 12, 8, 14, 15, 6, 11, 19, 16, 17, 20, 13]);
% time elapsed: 10.80 s
----------
%%%mzn-stat: initTime=0.449717068
%%%mzn-stat: objective=450
%%%mzn-stat: nodes=989
%%%mzn-stat: restarts=0
%%%mzn-stat: peakDepth=135
%%%mzn-stat: solveTime=0.03803254
%%%mzn-stat: variables=298
%%%mzn-stat: propagators=386
%%%mzn-stat: failures=602
%%%mzn-stat: propagations=58781
%%%mzn-stat: nogoods=602
%%%mzn-stat: numAtomicConstraintsPropagated=0
%%%mzn-stat: circuitNumber191PropagationsThatFoundConflict=3
%%%mzn-stat: circuitNumber191TotalFixedEdgesAtConflict=45
%%%mzn-stat: circuitNumber191NumberOfConflicts=3
%%%mzn-stat: circuitNumber191PropagationsThatPruned=178
%%%mzn-stat: circuitNumber191PropagationsTotal=638
%%%mzn-stat: AverageConflictSize=3.8970099667774085
%%%mzn-stat: NumUnitNogoodsLearned=0
%%%mzn-stat: AverageLearnedNogoodLength=13.491694352159469
%%%mzn-stat: AverageBacktrackAmount=0
%%%mzn-stat: AverageLbd=7.014950166112957
%%%mzn-stat: 2AutonomousSearchNumBackupCalled=343
%%%mzn-stat: 2AutonomousSearchNumPredicatesRemoved=0
%%%mzn-stat: 2AutonomousSearchNumCalls=346
%%%mzn-stat: 2AutonomousSearchNumPredicatesAdded=997
%%%mzn-stat: 2AutonomousSearchAverageSizeOfHeap=3.8439306358381504
%%%mzn-stat: 2AutonomousSearchNumAssignedPredicatesEncountered=1330
%%%mzn-stat-end
maxleg = 450;
succ = array1d(1..20,[2, 5, 8, 1, 7, 9, 12, 11, 18, 4, 15, 14, 10, 6, 13, 19, 16, 17, 20, 3]);
% time elapsed: 10.81 s
----------
%%%mzn-stat: initTime=0.449717068
%%%mzn-stat: objective=430
%%%mzn-stat: nodes=1106
%%%mzn-stat: restarts=0
%%%mzn-stat: peakDepth=135
%%%mzn-stat: solveTime=0.038415754
%%%mzn-stat: variables=298
%%%mzn-stat: propagators=386
%%%mzn-stat: failures=603
%%%mzn-stat: propagations=59586
%%%mzn-stat: nogoods=603
%%%mzn-stat: numAtomicConstraintsPropagated=0
%%%mzn-stat: circuitNumber191PropagationsThatFoundConflict=3
%%%mzn-stat: circuitNumber191TotalFixedEdgesAtConflict=45
%%%mzn-stat: circuitNumber191NumberOfConflicts=3
%%%mzn-stat: circuitNumber191PropagationsThatPruned=180
%%%mzn-stat: circuitNumber191PropagationsTotal=652
%%%mzn-stat: AverageConflictSize=3.8938640132669984
%%%mzn-stat: NumUnitNogoodsLearned=0
%%%mzn-stat: AverageLearnedNogoodLength=13.500829187396352
%%%mzn-stat: AverageBacktrackAmount=0
%%%mzn-stat: AverageLbd=7.019900497512438
%%%mzn-stat: 2AutonomousSearchNumBackupCalled=446
%%%mzn-stat: 2AutonomousSearchNumPredicatesRemoved=0
%%%mzn-stat: 2AutonomousSearchNumCalls=450
%%%mzn-stat: 2AutonomousSearchNumPredicatesAdded=1054
%%%mzn-stat: 2AutonomousSearchAverageSizeOfHeap=4.015555555555555
%%%mzn-stat: 2AutonomousSearchNumAssignedPredicatesEncountered=1807
%%%mzn-stat-end
maxleg = 430;
succ = array1d(1..20,[2, 5, 8, 1, 7, 9, 12, 11, 18, 4, 17, 14, 10, 6, 13, 19, 16, 3, 20, 15]);
% time elapsed: 10.81 s
----------
%%%mzn-stat: initTime=0.449717068
%%%mzn-stat: objective=415
%%%mzn-stat: nodes=1229
%%%mzn-stat: restarts=0
%%%mzn-stat: peakDepth=135
%%%mzn-stat: solveTime=0.039476701
%%%mzn-stat: variables=298
%%%mzn-stat: propagators=386
%%%mzn-stat: failures=615
%%%mzn-stat: propagations=61968
%%%mzn-stat: nogoods=615
%%%mzn-stat: numAtomicConstraintsPropagated=0
%%%mzn-stat: circuitNumber191PropagationsThatFoundConflict=9
%%%mzn-stat: circuitNumber191TotalFixedEdgesAtConflict=111
%%%mzn-stat: circuitNumber191NumberOfConflicts=9
%%%mzn-stat: circuitNumber191PropagationsThatPruned=190
%%%mzn-stat: circuitNumber191PropagationsTotal=691
%%%mzn-stat: AverageConflictSize=3.905691056910569
%%%mzn-stat: NumUnitNogoodsLearned=0
%%%mzn-stat: AverageLearnedNogoodLength=13.448780487804878
%%%mzn-stat: AverageBacktrackAmount=0
%%%mzn-stat: AverageLbd=6.990243902439024
%%%mzn-stat: 2AutonomousSearchNumBackupCalled=538
%%%mzn-stat: 2AutonomousSearchNumPredicatesRemoved=0
%%%mzn-stat: 2AutonomousSearchNumCalls=543
%%%mzn-stat: 2AutonomousSearchNumPredicatesAdded=1394
%%%mzn-stat: 2AutonomousSearchAverageSizeOfHeap=4.316758747697974
%%%mzn-stat: 2AutonomousSearchNumAssignedPredicatesEncountered=2344
%%%mzn-stat-end
maxleg = 415;
succ = array1d(1..20,[2, 5, 8, 1, 12, 9, 6, 11, 18, 4, 17, 14, 10, 7, 13, 19, 16, 3, 20, 15]);
% time elapsed: 10.81 s
----------
%%%mzn-stat: initTime=0.449717068
%%%mzn-stat: objective=385
%%%mzn-stat: nodes=1378
%%%mzn-stat: restarts=0
%%%mzn-stat: peakDepth=135
%%%mzn-stat: solveTime=0.041865428
%%%mzn-stat: variables=298
%%%mzn-stat: propagators=386
%%%mzn-stat: failures=649
%%%mzn-stat: propagations=66682
%%%mzn-stat: nogoods=649
%%%mzn-stat: numAtomicConstraintsPropagated=0
%%%mzn-stat: circuitNumber191PropagationsThatFoundConflict=14
%%%mzn-stat: circuitNumber191TotalFixedEdgesAtConflict=177
%%%mzn-stat: circuitNumber191NumberOfConflicts=14
%%%mzn-stat: circuitNumber191PropagationsThatPruned=205
%%%mzn-stat: circuitNumber191PropagationsTotal=761
%%%mzn-stat: AverageConflictSize=3.9029275808936825
%%%mzn-stat: NumUnitNogoodsLearned=0
%%%mzn-stat: AverageLearnedNogoodLength=13.380585516178737
%%%mzn-stat: AverageBacktrackAmount=0
%%%mzn-stat: AverageLbd=6.915254237288136
%%%mzn-stat: 2AutonomousSearchNumBackupCalled=624
%%%mzn-stat: 2AutonomousSearchNumPredicatesRemoved=0
%%%mzn-stat: 2AutonomousSearchNumCalls=630
%%%mzn-stat: 2AutonomousSearchNumPredicatesAdded=1767
%%%mzn-stat: 2AutonomousSearchAverageSizeOfHeap=4.62063492063492
%%%mzn-stat: 2AutonomousSearchNumAssignedPredicatesEncountered=2911
%%%mzn-stat-end
maxleg = 385;
succ = array1d(1..20,[4, 5, 8, 10, 1, 7, 12, 18, 6, 13, 3, 14, 15, 2, 19, 17, 11, 9, 20, 16]);
% time elapsed: 10.81 s
----------
%%%mzn-stat: initTime=0.449717068
%%%mzn-stat: objective=364
%%%mzn-stat: nodes=1477
%%%mzn-stat: restarts=0
%%%mzn-stat: peakDepth=135
%%%mzn-stat: solveTime=0.042423246
%%%mzn-stat: variables=298
%%%mzn-stat: propagators=386
%%%mzn-stat: failures=653
%%%mzn-stat: propagations=67967
%%%mzn-stat: nogoods=653
%%%mzn-stat: numAtomicConstraintsPropagated=0
%%%mzn-stat: circuitNumber191PropagationsThatFoundConflict=15
%%%mzn-stat: circuitNumber191TotalFixedEdgesAtConflict=197
%%%mzn-stat: circuitNumber191NumberOfConflicts=15
%%%mzn-stat: circuitNumber191PropagationsThatPruned=208
%%%mzn-stat: circuitNumber191PropagationsTotal=781
%%%mzn-stat: AverageConflictSize=3.915773353751914
%%%mzn-stat: NumUnitNogoodsLearned=0
%%%mzn-stat: AverageLearnedNogoodLength=13.393568147013783
%%%mzn-stat: AverageBacktrackAmount=0
%%%mzn-stat: AverageLbd=6.909647779479326
%%%mzn-stat: 2AutonomousSearchNumBackupCalled=703
%%%mzn-stat: 2AutonomousSearchNumPredicatesRemoved=0
%%%mzn-stat: 2AutonomousSearchNumCalls=710
%%%mzn-stat: 2AutonomousSearchNumPredicatesAdded=1930
%%%mzn-stat: 2AutonomousSearchAverageSizeOfHeap=4.898591549295775
%%%mzn-stat: 2AutonomousSearchNumAssignedPredicatesEncountered=3478
%%%mzn-stat-end
maxleg = 364;
succ = array1d(1..20,[4, 5, 8, 10, 1, 7, 12, 18, 6, 13, 15, 14, 19, 2, 16, 17, 3, 9, 20, 11]);
% time elapsed: 10.81 s
----------
==========
% time elapsed: 10.97 s
%%%mzn-stat: initTime=0.449717068
%%%mzn-stat: objective=364
%%%mzn-stat: nodes=3227
%%%mzn-stat: restarts=0
%%%mzn-stat: peakDepth=135
%%%mzn-stat: solveTime=0.203840793
%%%mzn-stat: variables=298
%%%mzn-stat: propagators=386
%%%mzn-stat: failures=2254
%%%mzn-stat: propagations=295924
%%%mzn-stat: nogoods=2254
%%%mzn-stat: numAtomicConstraintsPropagated=0
%%%mzn-stat: circuitNumber191PropagationsThatFoundConflict=79
%%%mzn-stat: circuitNumber191TotalFixedEdgesAtConflict=1014
%%%mzn-stat: circuitNumber191NumberOfConflicts=79
%%%mzn-stat: circuitNumber191PropagationsThatPruned=1590
%%%mzn-stat: circuitNumber191PropagationsTotal=3752
%%%mzn-stat: AverageConflictSize=4.016858917480035
%%%mzn-stat: NumUnitNogoodsLearned=1
%%%mzn-stat: AverageLearnedNogoodLength=21.078083407275955
%%%mzn-stat: AverageBacktrackAmount=0
%%%mzn-stat: AverageLbd=6.097160603371783
%%%mzn-stat: 2AutonomousSearchNumBackupCalled=703
%%%mzn-stat: 2AutonomousSearchNumPredicatesRemoved=0
%%%mzn-stat: 2AutonomousSearchNumCalls=710
%%%mzn-stat: 2AutonomousSearchNumPredicatesAdded=2696
%%%mzn-stat: 2AutonomousSearchAverageSizeOfHeap=4.898591549295775
%%%mzn-stat: 2AutonomousSearchNumAssignedPredicatesEncountered=3478
%%%mzn-stat-end
